************************************************************************
file with basedata            : mm10_.bas
initial value random generator: 25792680
************************************************************************
projects                      :  1
jobs (incl. supersource/sink ):  12
horizon                       :  76
RESOURCES
  - renewable                 :  2   R
  - nonrenewable              :  2   N
  - doubly constrained        :  0   D
************************************************************************
PROJECT INFORMATION:
pronr.  #jobs rel.date duedate tardcost  MPM-Time
    1     10      0       10        2       10
************************************************************************
PRECEDENCE RELATIONS:
jobnr.    #modes  #successors   successors
   1        1          3           2   3   4
   2        3          1          10
   3        3          1          11
   4        3          3           5   6   7
   5        3          2           8  10
   6        3          2           8  11
   7        3          2           8  11
   8        3          1           9
   9        3          1          12
  10        3          1          12
  11        3          1          12
  12        1          0        
************************************************************************
REQUESTS/DURATIONS:
jobnr. mode duration  R 1  R 2  N 1  N 2
------------------------------------------------------------------------
  1      1     0       0    0    0    0
  2      1     5       0    9    0    6
         2     8       6    0    0    3
         3     9       4    0    5    0
  3      1     3       0    4    0    5
         2     3       5    0    3    0
         3     4       5    0    0    6
  4      1     3       0    8    0    7
         2     6       9    0    0    6
         3     9       0    5    0    2
  5      1     2       0    7    2    0
         2     5       6    0    2    0
         3     9       0    5    1    0
  6      1     4      10    0    0    8
         2     8       0    4    0    8
         3     9       7    0    0    7
  7      1     3       0    6    4    0
         2     6       5    0    0    5
         3     7       3    0    4    0
  8      1     1       0    9    8    0
         2     1       5    0    8    0
         3     2       0    8    8    0
  9      1     2      10    0    7    0
         2     4       0    9    0    7
         3     7       0    6    0    2
 10      1     2       0    4    0    8
         2     5       0    3    3    0
         3    10       7    0    0    4
 11      1     2       8    0    3    0
         2     8       0    8    0    9
         3    10       0    8    0    7
 12      1     0       0    0    0    0
************************************************************************
RESOURCEAVAILABILITIES:
  R 1  R 2  N 1  N 2
   14   13   22   33
************************************************************************
MAXIMAL LAGS:
from  to  type  delay
    1   12   ES      0
    1    2   ES      0
    2   12   ES      0
    1    3   ES      0
    3   12   ES      0
    1    4   ES      0
    4   12   ES      0
    1    5   ES      0
    5   12   ES      0
    1    6   ES      0
    6   12   ES      0
    1    7   ES      0
    7   12   ES      0
    1    8   ES      0
    8   12   ES      0
    1    9   ES      0
    9   12   ES      0
    1   10   ES      0
   10   12   ES      0
    1   11   ES      0
   11   12   ES      0
    1   12   ES      0
    2   10   SS      6
    2   10   SE      6
    2   10   ES      4
    2   10   EE     -2
    3   11   SS     -4
    3   11   SE     -6
    3   11   ES      9
    3   11   EE     10
    4    5   SS     -2
    4    5   SE     -5
    4    5   ES     -4
    4    5   EE      0
    4    6   SS     -8
    4    6   SE      9
    4    6   ES      8
    4    6   EE     -3
    4    7   SS      2
    4    7   SE     -2
    4    7   ES     12
    4    7   EE    -10
    5    8   SS    -12
    5    8   SE      2
    5    8   ES      7
    5    8   EE      6
    5   10   SS     -9
    5   10   SE    -10
    5   10   ES      5
    5   10   EE     -6
    6    8   SS      4
    6    8   SE     -4
    6    8   ES     -8
    6    8   EE     -1
    6   11   SS    -10
    6   11   SE     -5
    6   11   ES     -1
    6   11   EE     -3
    7    8   SS     -7
    7    8   SE      2
    7    8   ES      5
    7    8   EE     10
    7   11   SS     -3
    7   11   SE      7
    7   11   ES      8
    7   11   EE      4
    8    9   SS    -12
    8    9   SE      9
    8    9   ES      5
    8    9   EE     -3
************************************************************************
